&CONTROL
  calculation  = 'scf',
  restart_mode = 'from_scratch',
  prefix      = 'MoS2',
  pseudo_dir  = './',
  outdir      = './tmp',
/
&SYSTEM
  ibrav=  4,
  celldm(1)= 2.3,
  celldm(3)= 4.4,
  nat       = 3,
  ntyp      = 2,
  ecutwfc   = 65.0,
  ecutrho= 550.0,
  occupations = 'smearing',
  smearing='methfessel-paxton',
  degauss     =0.01D0,
/
&ELECTRONS
    mixing_beta = 0.1, 
    conv_thr =  1.0d-14,
/
&IONS
/
ATOMIC_SPECIES
Mo   95.94   Mo.pz-n-nc.UPF
S    32.065  S.pz-n-nc.UPF
ATOMIC_POSITIONS (angstrom)
B       -1.440249478   2.494146918  -0.331485048
N       -0.719904516   1.247242652  -0.332021043
B        0.720111819   1.246867185  -0.331485048
N        1.440096074  -0.000172779  -0.332021043
B        2.880119329   0.000205067  -0.331485048
N        1.439802332   2.494149297  -0.332021043
Li      -0.000006110   2.494146110   3.700518273
K_POINTS {automatic}
40  40  1  0.0  0.0  0.0